problems/csplib-prob036/FixedLengthErrorCorrectingCodes-models/noch/O2/lingeling/model-p5-solution000001.eprime-solution
language ESSENCE' 1.0

letting c_ExplicitR9_Function1D be
        [[1, 1, 1, 3, 2, 1; int(1..6)], [1, 1, 4, 2, 3, 3; int(1..6)], [1, 1, 4, 3, 1, 4; int(1..6)],
         [1, 1, 4, 3, 4, 3; int(1..6)], [1, 2, 4, 3, 4, 4; int(1..6)], [1, 2, 4, 4, 3, 1; int(1..6)],
         [1, 3, 4, 4, 2, 3; int(1..6)], [1, 4, 4, 4, 1, 4; int(1..6)]; int(1..8)]
