problems/csplib-prob036/FixedLengthErrorCorrectingCodes-models/noch/O2/lingeling/model-p5-solution000001.solution
language Essence 1.3

letting c be
        {function(1 --> a, 2 --> a, 3 --> a, 4 --> c, 5 --> b, 6 --> a),
         function(1 --> a, 2 --> a, 3 --> d, 4 --> b, 5 --> c, 6 --> c),
         function(1 --> a, 2 --> a, 3 --> d, 4 --> c, 5 --> a, 6 --> d),
         function(1 --> a, 2 --> a, 3 --> d, 4 --> c, 5 --> d, 6 --> c),
         function(1 --> a, 2 --> b, 3 --> d, 4 --> c, 5 --> d, 6 --> d),
         function(1 --> a, 2 --> b, 3 --> d, 4 --> d, 5 --> c, 6 --> a),
         function(1 --> a, 2 --> c, 3 --> d, 4 --> d, 5 --> b, 6 --> c),
         function(1 --> a, 2 --> d, 3 --> d, 4 --> d, 5 --> a, 6 --> d)}
